Version identifier: 22.1.0.0 | 2022-03-09 | 1a383f8ce
CPXPARAM_Threads                                 1
CPXPARAM_MIP_Strategy_VariableSelect             3
CPXPARAM_TimeLimit                               599.99595290900004
Tried aggregator 1 time.
MIP Presolve eliminated 12 rows and 0 columns.
MIP Presolve modified 1 coefficients.
Reduced MIP has 1013 rows, 5000 columns, and 51518 nonzeros.
Reduced MIP has 5000 binaries, 0 generals, 0 SOSs, and 0 indicators.
Presolve time = 0.03 sec. (25.26 ticks)
Probing time = 0.01 sec. (5.45 ticks)
Tried aggregator 1 time.
Detecting symmetries...
Reduced MIP has 1013 rows, 5000 columns, and 51518 nonzeros.
Reduced MIP has 5000 binaries, 0 generals, 0 SOSs, and 0 indicators.
Presolve time = 0.04 sec. (31.29 ticks)
Probing time = 0.01 sec. (5.45 ticks)
Clique table members: 600.
MIP emphasis: balance optimality and feasibility.
MIP search method: dynamic search.
Parallel mode: none, using 1 thread.
Root relaxation solution time = 0.40 sec. (456.90 ticks)

        Nodes                                         Cuts/
   Node  Left     Objective  IInf  Best Integer    Best Bound    ItCnt     Gap

      0     0        0.0000   738                      0.0000     2522         
*     0+    0                            0.0000        0.0000             0.00%
      0     0        cutoff              0.0000        0.0000     2522    0.00%
Elapsed time = 2.00 sec. (2231.14 ticks, tree = 0.01 MB, solutions = 1)

Root node processing (before b&c):
  Real time             =    2.00 sec. (2231.29 ticks)
Sequential b&c:
  Real time             =    0.00 sec. (0.00 ticks)
                          ------------
Total (root+branch&cut) =    2.00 sec. (2231.29 ticks)
Primal:	200
Dual:	200
Status:	Optimal
Time:	2.03057
Sequence:
	7
	10
	1
	8
	7
	14
	12
	7
	15
	10
	7
	14
	10
	8
	16
	10
	18
	16
	21
	8
	16
	21
	7
	14
	12
	7
	2
	21
	7
	14
	10
	19
	14
	12
	18
	14
	13
	18
	14
	21
	18
	15
	21
	7
	1
	10
	8
	14
	12
	7
	14
	12
	7
	2
	10
	7
	16
	10
	7
	0
	21
	7
	14
	23
	7
	15
	12
	14
	7
	18
	17
	7
	18
	3
	7
	18
	5
	7
	9
	3
	18
	18
	3
	19
	18
	5
	7
	18
	4
	18
	18
	5
	18
	7
	6
	18
	18
	5
	7
	20
	3
	7
	7
	5
	9
	18
	3
	7
	7
	3
	20
	7
	14
	12
	7
	14
	12
	8
	1
	21
	7
	14
	11
	7
	16
	12
	7
	15
	10
	18
	16
	21
	20
	14
	7
	21
	1
	9
	3
	7
	18
	5
	20
	7
	3
	18
	7
	2
	10
	18
	14
	10
	9
	16
	21
	7
	14
	13
	1
	18
	10
	14
	19
	12
	1
	7
	10
	0
	18
	10
	1
	7
	22
	16
	7
	21
	14
	19
	23
	1
	18
	10
	14
	9
	23
	14
	7
	21
	2
	7
	21
	16
	18
	24
	14
	18
	10
	1
	19
	23
